%%% static parameters %%%
timespan = 1;
Fact = [2];
Distr1 = [5];
Distr2 = [10];
Clients_N = [120];
Demand_W = [15];
Lt0 = [4];
Lt1 = [4];
SS_ = [0.85];
DS_D = [5];
K = [200];
MA = [500];
%%% dynamic parameters %%%
lost_ratio_sales_ret_th = 0.5225625874303093;
lost_ratio_sales_ret_w = 44;
lost_ratio_sales_dis_th = 0.10341726486920877;
lost_ratio_sales_dis_w = 30;
lost_ratio_sales_fac_th = 0.21782136629032234;
lost_ratio_sales_fac_w = 35;
stock_customer_MA_mean_relative_th = 0.7176258443878614;
stock_customer_MA_mean_relative_w = 100;
stock_distributor_MA_mean_relative_th = 0.5712471927589444;
stock_distributor_MA_mean_relative_w = 35;
stock_retailer_MA_mean_relative_th = 0.5078101069181308;
stock_retailer_MA_mean_relative_w = 77;
stock_factory_MA_mean_relative_th = 0.8280928389753123;
stock_factory_MA_mean_relative_w = 100;
